NAME          
ROWS
 N  OBJ
 L  c1
COLUMNS
    MARKER    'MARKER'                 'INTORG'
    x[1]      c1        254
    x[1]      OBJ       -308
    x[2]      c1        21
    x[2]      OBJ       -77
    x[3]      c1        92
    x[3]      OBJ       -89
    x[4]      c1        127
    x[4]      OBJ       -96
    x[5]      c1        884
    x[5]      OBJ       -848
    x[6]      c1        630
    x[6]      OBJ       -621
    x[7]      c1        1004
    x[7]      OBJ       -992
    x[8]      c1        137
    x[8]      OBJ       -196
    x[9]      c1        790
    x[9]      OBJ       -696
    x[10]     c1        890
    x[10]     OBJ       -835
RHS
    rhs       c1        2414
RANGES
BOUNDS
 BV bounds    x[1]
 BV bounds    x[2]
 BV bounds    x[3]
 BV bounds    x[4]
 BV bounds    x[5]
 BV bounds    x[6]
 BV bounds    x[7]
 BV bounds    x[8]
 BV bounds    x[9]
 BV bounds    x[10]
ENDATA
